\ENCODING=ISO-8859-1
\Problem name: ilog.cplex

Maximize
 obj: 982 x(0)#0 + 1009 x(1)#1 + 1105 x(2)#2 + 967 x(3)#3 + 697 x(4)#4
      + 901 x(5)#5 + 641 x(6)#6 + 690 x(7)#7 + 546 x(8)#8 + 613 x(9)#9
      + 708 x(10)#10 + 1059 x(11)#11 + 569 x(12)#12 + 976 x(13)#13
      + 774 x(14)#14 + 755 x(15)#15 + 842 x(16)#16 + 972 x(17)#17
      + 761 x(18)#18 + 625 x(19)#19 + 861 x(20)#20 + 880 x(21)#21
      + 804 x(22)#22 + 573 x(23)#23 + 851 x(24)#24 + 514 x(25)#25
      + 853 x(26)#26 + 663 x(27)#27 + 1004 x(28)#28 + 572 x(29)#29
      + 944 x(30)#30 + 732 x(31)#31 + 830 x(32)#32 + 476 x(33)#33
      + 824 x(34)#34 + 758 x(35)#35 + 728 x(36)#36 + 707 x(37)#37
      + 739 x(38)#38 + 474 x(39)#39 + 428 x(40)#40 + 417 x(41)#41
      + 835 x(42)#42 + 581 x(43)#43 + 632 x(44)#44 + 484 x(45)#45
      + 892 x(46)#46 + 1035 x(47)#47 + 401 x(48)#48 + 839 x(49)#49
      + 600 x(50)#50 + 684 x(51)#51 + 1066 x(52)#52 + 834 x(53)#53
      + 857 x(54)#54 + 1061 x(55)#55 + 710 x(56)#56 + 877 x(57)#57
      + 795 x(58)#58 + 976 x(59)#59 + 1154 x(60)#60 + 426 x(61)#61
      + 827 x(62)#62 + 1082 x(63)#63 + 943 x(64)#64 + 797 x(65)#65
      + 557 x(66)#66 + 834 x(67)#67 + 497 x(68)#68 + 705 x(69)#69
      + 695 x(70)#70 + 609 x(71)#71 + 655 x(72)#72 + 630 x(73)#73
      + 614 x(74)#74 + 935 x(75)#75 + 1003 x(76)#76 + 803 x(77)#77
      + 704 x(78)#78 + 836 x(79)#79 + 445 x(80)#80 + 808 x(81)#81
      + 464 x(82)#82 + 651 x(83)#83 + 1079 x(84)#84 + 781 x(85)#85
      + 708 x(86)#86 + 861 x(87)#87 + 1230 x(88)#88 + 927 x(89)#89
      + 494 x(90)#90 + 1096 x(91)#91 + 673 x(92)#92 + 626 x(93)#93
      + 861 x(94)#94 + 734 x(95)#95 + 825 x(96)#96 + 842 x(97)#97
      + 995 x(98)#98 + 709 x(99)#99
Subject To
 c1: 943 x(0)#0 + 948 x(1)#1 + 984 x(2)#2 + 859 x(3)#3 + 801 x(4)#4
     + 768 x(5)#5 + 229 x(6)#6 + 497 x(7)#7 + 299 x(8)#8 + 88 x(9)#9
     + 113 x(10)#10 + 685 x(11)#11 + 24 x(12)#12 + 169 x(13)#13 + 28 x(14)#14
     + 112 x(15)#15 + 906 x(16)#16 + 639 x(17)#17 + 14 x(18)#18 + 287 x(19)#19
     + 619 x(20)#20 + 446 x(21)#21 + 956 x(22)#22 + 665 x(23)#23 + 300 x(24)#24
     + 431 x(25)#25 + 313 x(26)#26 + 257 x(27)#27 + 886 x(28)#28 + 575 x(29)#29
     + 948 x(30)#30 + 851 x(31)#31 + 882 x(32)#32 + 182 x(33)#33 + 205 x(34)#34
     + 551 x(35)#35 + x(36)#36 + 956 x(37)#37 + 111 x(38)#38 + 455 x(39)#39
     + 186 x(40)#40 + 76 x(41)#41 + 325 x(42)#42 + 247 x(43)#43 + 767 x(44)#44
     + 382 x(45)#45 + 924 x(46)#46 + 481 x(47)#47 + 262 x(48)#48 + 869 x(49)#49
     + 204 x(50)#50 + 974 x(51)#51 + 952 x(52)#52 + 509 x(53)#53 + 805 x(54)#54
     + 965 x(55)#55 + 284 x(56)#56 + 978 x(57)#57 + 643 x(58)#58 + 851 x(59)#59
     + 849 x(60)#60 + 329 x(61)#61 + 282 x(62)#62 + 510 x(63)#63 + 901 x(64)#64
     + 855 x(65)#65 + 521 x(66)#66 + 577 x(67)#67 + 881 x(68)#68 + 291 x(69)#69
     + 598 x(70)#70 + 606 x(71)#71 + 800 x(72)#72 + 493 x(73)#73 + 964 x(74)#74
     + 951 x(75)#75 + 971 x(76)#76 + 739 x(77)#77 + 759 x(78)#78 + 747 x(79)#79
     + 791 x(80)#80 + 839 x(81)#81 + 203 x(82)#82 + 681 x(83)#83 + 729 x(84)#84
     + 682 x(85)#85 + 952 x(86)#86 + 622 x(87)#87 + 870 x(88)#88 + 39 x(89)#89
     + 86 x(90)#90 + 798 x(91)#91 + 693 x(92)#92 + 39 x(93)#93 + 632 x(94)#94
     + 900 x(95)#95 + 729 x(96)#96 + 192 x(97)#97 + 970 x(98)#98 + 346 x(99)#99
     <= 42813
 c2: 184 x(0)#0 + 613 x(1)#1 + 282 x(2)#2 + 608 x(3)#3 + 85 x(4)#4 + 476 x(5)#5
     + 48 x(6)#6 + 604 x(7)#7 + 501 x(8)#8 + 49 x(9)#9 + 4 x(10)#10
     + 253 x(11)#11 + 227 x(12)#12 + 405 x(13)#13 + 348 x(14)#14 + 47 x(15)#15
     + 277 x(16)#16 + 14 x(17)#17 + 91 x(18)#18 + 638 x(19)#19 + 931 x(20)#20
     + 998 x(21)#21 + 336 x(22)#22 + 523 x(23)#23 + 714 x(24)#24 + 35 x(25)#25
     + 260 x(26)#26 + 327 x(27)#27 + 877 x(28)#28 + 145 x(29)#29 + 417 x(30)#30
     + 803 x(31)#31 + 822 x(32)#32 + 409 x(33)#33 + 34 x(34)#34 + 875 x(35)#35
     + 1000 x(36)#36 + 352 x(37)#37 + 951 x(38)#38 + 246 x(39)#39
     + 388 x(40)#40 + 696 x(41)#41 + 413 x(42)#42 + 799 x(43)#43 + 325 x(44)#44
     + 615 x(45)#45 + 335 x(46)#46 + 856 x(47)#47 + 324 x(48)#48 + 665 x(49)#49
     + 431 x(50)#50 + 771 x(51)#51 + 586 x(52)#52 + 198 x(53)#53 + 683 x(54)#54
     + 985 x(55)#55 + 681 x(56)#56 + 523 x(57)#57 + 639 x(58)#58 + 318 x(59)#59
     + 873 x(60)#60 + 697 x(61)#61 + 854 x(62)#62 + 267 x(63)#63 + 340 x(64)#64
     + 280 x(65)#65 + 632 x(66)#66 + 977 x(67)#67 + 593 x(68)#68 + 786 x(69)#69
     + 410 x(70)#70 + 526 x(71)#71 + 65 x(72)#72 + 479 x(73)#73 + 713 x(74)#74
     + 569 x(75)#75 + 154 x(76)#76 + 852 x(77)#77 + 916 x(78)#78 + 661 x(79)#79
     + 230 x(80)#80 + 674 x(81)#81 + 156 x(82)#82 + 703 x(83)#83 + 739 x(84)#84
     + 552 x(85)#85 + 541 x(86)#86 + 752 x(87)#87 + 225 x(88)#88 + 128 x(89)#89
     + 449 x(90)#90 + 786 x(91)#91 + 798 x(92)#92 + 562 x(93)#93 + 97 x(94)#94
     + 58 x(95)#95 + 218 x(96)#96 + 706 x(97)#97 + 363 x(98)#98 + 705 x(99)#99
     <= 36845
 c3: 929 x(0)#0 + 402 x(1)#1 + 218 x(2)#2 + 930 x(3)#3 + 667 x(4)#4
     + 848 x(5)#5 + 304 x(6)#6 + 276 x(7)#7 + 572 x(8)#8 + 693 x(9)#9
     + 739 x(10)#10 + 853 x(11)#11 + 829 x(12)#12 + 963 x(13)#13 + 659 x(14)#14
     + 570 x(15)#15 + 383 x(16)#16 + 699 x(17)#17 + 919 x(18)#18 + 232 x(19)#19
     + 915 x(20)#20 + 353 x(21)#21 + 115 x(22)#22 + 169 x(23)#23 + 52 x(24)#24
     + 481 x(25)#25 + 858 x(26)#26 + 872 x(27)#27 + 334 x(28)#28 + 47 x(29)#29
     + 27 x(30)#30 + 4 x(31)#31 + 87 x(32)#32 + 87 x(33)#33 + 829 x(34)#34
     + 484 x(35)#35 + 426 x(36)#36 + 824 x(37)#37 + 401 x(38)#38 + 14 x(39)#39
     + 987 x(40)#40 + 282 x(41)#41 + 276 x(42)#42 + 663 x(43)#43 + 582 x(44)#44
     + 865 x(45)#45 + 74 x(46)#46 + 658 x(47)#47 + 222 x(48)#48 + 9 x(49)#49
     + 881 x(50)#50 + 65 x(51)#51 + 718 x(52)#52 + 816 x(53)#53 + 571 x(54)#54
     + 757 x(55)#55 + 281 x(56)#56 + 697 x(57)#57 + 369 x(58)#58 + 709 x(59)#59
     + 971 x(60)#60 + 78 x(61)#61 + 327 x(62)#62 + 576 x(63)#63 + 467 x(64)#64
     + 995 x(65)#65 + 756 x(66)#66 + 51 x(67)#67 + 279 x(68)#68 + 618 x(69)#69
     + 358 x(70)#70 + 337 x(71)#71 + 54 x(72)#72 + 490 x(73)#73 + 127 x(74)#74
     + 93 x(75)#75 + 355 x(76)#76 + 295 x(77)#77 + 746 x(78)#78 + 17 x(79)#79
     + 47 x(80)#80 + 416 x(81)#81 + 156 x(82)#82 + 572 x(83)#83 + 771 x(84)#84
     + 11 x(85)#85 + 426 x(86)#86 + 133 x(87)#87 + 920 x(88)#88 + 712 x(89)#89
     + 62 x(90)#90 + 874 x(91)#91 + 878 x(92)#92 + 920 x(93)#93 + 249 x(94)#94
     + 511 x(95)#95 + 255 x(96)#96 + 539 x(97)#97 + 639 x(98)#98 + 567 x(99)#99
     <= 36146
 c4: 97 x(0)#0 + 316 x(1)#1 + 805 x(2)#2 + 788 x(3)#3 + 517 x(4)#4 + 918 x(5)#5
     + 716 x(6)#6 + 751 x(7)#7 + 716 x(8)#8 + 347 x(9)#9 + 763 x(10)#10
     + 613 x(11)#11 + 202 x(12)#12 + 816 x(13)#13 + 62 x(14)#14 + 304 x(15)#15
     + 145 x(16)#16 + 850 x(17)#17 + 800 x(18)#18 + 729 x(19)#19 + 486 x(20)#20
     + 527 x(21)#21 + 425 x(22)#22 + 510 x(23)#23 + 906 x(24)#24 + 108 x(25)#25
     + 751 x(26)#26 + 888 x(27)#27 + 416 x(28)#28 + 402 x(29)#29 + 942 x(30)#30
     + 504 x(31)#31 + 385 x(32)#32 + 351 x(33)#33 + 352 x(34)#34 + 527 x(35)#35
     + 369 x(36)#36 + 502 x(37)#37 + 827 x(38)#38 + 83 x(39)#39 + 95 x(40)#40
     + 230 x(41)#41 + 189 x(42)#42 + 568 x(43)#43 + 48 x(44)#44 + 139 x(45)#45
     + 976 x(46)#46 + 957 x(47)#47 + 312 x(48)#48 + 359 x(49)#49 + 253 x(50)#50
     + 505 x(51)#51 + 749 x(52)#52 + 174 x(53)#53 + x(54)#54 + 65 x(55)#55
     + 604 x(56)#56 + 755 x(57)#57 + 467 x(58)#58 + 707 x(59)#59 + 472 x(60)#60
     + 222 x(61)#61 + 25 x(62)#62 + 943 x(63)#63 + 582 x(64)#64 + 571 x(65)#65
     + 45 x(66)#66 + 474 x(67)#67 + 154 x(68)#68 + 833 x(69)#69 + 603 x(70)#70
     + 538 x(71)#71 + 399 x(72)#72 + 31 x(73)#73 + 296 x(74)#74 + 762 x(75)#75
     + 728 x(76)#76 + 575 x(77)#77 + 169 x(78)#78 + 459 x(79)#79 + 145 x(80)#80
     + 671 x(81)#81 + 625 x(82)#82 + 574 x(83)#83 + 261 x(84)#84 + 180 x(85)#85
     + 768 x(86)#86 + 827 x(87)#87 + 926 x(88)#88 + 925 x(89)#89 + 75 x(90)#90
     + 656 x(91)#91 + 190 x(92)#92 + 976 x(93)#93 + 536 x(94)#94 + 267 x(95)#95
     + 993 x(96)#96 + 471 x(97)#97 + 446 x(98)#98 + 470 x(99)#99 <= 37149
 c5: 734 x(0)#0 + 608 x(1)#1 + 782 x(2)#2 + 477 x(3)#3 + 393 x(4)#4
     + 720 x(5)#5 + 867 x(6)#6 + 993 x(7)#7 + 170 x(8)#8 + 45 x(9)#9
     + 739 x(10)#10 + 650 x(11)#11 + 452 x(12)#12 + 341 x(13)#13 + 427 x(14)#14
     + 734 x(15)#15 + 661 x(16)#16 + 802 x(17)#17 + 757 x(18)#18 + 388 x(19)#19
     + 760 x(20)#20 + 794 x(21)#21 + 696 x(22)#22 + 879 x(23)#23 + 659 x(24)#24
     + 64 x(25)#25 + 787 x(26)#26 + 468 x(27)#27 + 161 x(28)#28 + 124 x(29)#29
     + 89 x(30)#30 + 42 x(31)#31 + 223 x(32)#32 + 715 x(33)#33 + 227 x(34)#34
     + 259 x(35)#35 + 784 x(36)#36 + 679 x(37)#37 + 360 x(38)#38 + 982 x(39)#39
     + 392 x(40)#40 + 732 x(41)#41 + 677 x(42)#42 + 138 x(43)#43 + 439 x(44)#44
     + 32 x(45)#45 + 685 x(46)#46 + 779 x(47)#47 + 69 x(48)#48 + 863 x(49)#49
     + 359 x(50)#50 + 413 x(51)#51 + 856 x(52)#52 + 881 x(53)#53 + 426 x(54)#54
     + 745 x(55)#55 + 286 x(56)#56 + 221 x(57)#57 + 146 x(58)#58 + 770 x(59)#59
     + 726 x(60)#60 + 554 x(61)#61 + 951 x(62)#62 + 942 x(63)#63 + 517 x(64)#64
     + 842 x(65)#65 + 89 x(66)#66 + 84 x(67)#67 + 441 x(68)#68 + 868 x(69)#69
     + 510 x(70)#70 + 442 x(71)#71 + 119 x(72)#72 + 621 x(73)#73 + 31 x(74)#74
     + 604 x(75)#75 + 717 x(76)#76 + 823 x(77)#77 + 630 x(78)#78 + 884 x(79)#79
     + 926 x(80)#80 + 381 x(81)#81 + 560 x(82)#82 + 405 x(83)#83 + 441 x(84)#84
     + 891 x(85)#85 + 338 x(86)#86 + 5 x(87)#87 + 960 x(88)#88 + 376 x(89)#89
     + 876 x(90)#90 + 77 x(91)#91 + 33 x(92)#92 + 360 x(93)#93 + 520 x(94)#94
     + 74 x(95)#95 + 367 x(96)#96 + 636 x(97)#97 + 954 x(98)#98 + 225 x(99)#99
     <= 39151
Bounds
 0 <= x(0)#0 <= 1
 0 <= x(1)#1 <= 1
 0 <= x(2)#2 <= 1
 0 <= x(3)#3 <= 1
 0 <= x(4)#4 <= 1
 0 <= x(5)#5 <= 1
 0 <= x(6)#6 <= 1
 0 <= x(7)#7 <= 1
 0 <= x(8)#8 <= 1
 0 <= x(9)#9 <= 1
 0 <= x(10)#10 <= 1
 0 <= x(11)#11 <= 1
 0 <= x(12)#12 <= 1
 0 <= x(13)#13 <= 1
 0 <= x(14)#14 <= 1
 0 <= x(15)#15 <= 1
 0 <= x(16)#16 <= 1
 0 <= x(17)#17 <= 1
 0 <= x(18)#18 <= 1
 0 <= x(19)#19 <= 1
 0 <= x(20)#20 <= 1
 0 <= x(21)#21 <= 1
 0 <= x(22)#22 <= 1
 0 <= x(23)#23 <= 1
 0 <= x(24)#24 <= 1
 0 <= x(25)#25 <= 1
 0 <= x(26)#26 <= 1
 0 <= x(27)#27 <= 1
 0 <= x(28)#28 <= 1
 0 <= x(29)#29 <= 1
 0 <= x(30)#30 <= 1
 0 <= x(31)#31 <= 1
 0 <= x(32)#32 <= 1
 0 <= x(33)#33 <= 1
 0 <= x(34)#34 <= 1
 0 <= x(35)#35 <= 1
 0 <= x(36)#36 <= 1
 0 <= x(37)#37 <= 1
 0 <= x(38)#38 <= 1
 0 <= x(39)#39 <= 1
 0 <= x(40)#40 <= 1
 0 <= x(41)#41 <= 1
 0 <= x(42)#42 <= 1
 0 <= x(43)#43 <= 1
 0 <= x(44)#44 <= 1
 0 <= x(45)#45 <= 1
 0 <= x(46)#46 <= 1
 0 <= x(47)#47 <= 1
 0 <= x(48)#48 <= 1
 0 <= x(49)#49 <= 1
 0 <= x(50)#50 <= 1
 0 <= x(51)#51 <= 1
 0 <= x(52)#52 <= 1
 0 <= x(53)#53 <= 1
 0 <= x(54)#54 <= 1
 0 <= x(55)#55 <= 1
 0 <= x(56)#56 <= 1
 0 <= x(57)#57 <= 1
 0 <= x(58)#58 <= 1
 0 <= x(59)#59 <= 1
 0 <= x(60)#60 <= 1
 0 <= x(61)#61 <= 1
 0 <= x(62)#62 <= 1
 0 <= x(63)#63 <= 1
 0 <= x(64)#64 <= 1
 0 <= x(65)#65 <= 1
 0 <= x(66)#66 <= 1
 0 <= x(67)#67 <= 1
 0 <= x(68)#68 <= 1
 0 <= x(69)#69 <= 1
 0 <= x(70)#70 <= 1
 0 <= x(71)#71 <= 1
 0 <= x(72)#72 <= 1
 0 <= x(73)#73 <= 1
 0 <= x(74)#74 <= 1
 0 <= x(75)#75 <= 1
 0 <= x(76)#76 <= 1
 0 <= x(77)#77 <= 1
 0 <= x(78)#78 <= 1
 0 <= x(79)#79 <= 1
 0 <= x(80)#80 <= 1
 0 <= x(81)#81 <= 1
 0 <= x(82)#82 <= 1
 0 <= x(83)#83 <= 1
 0 <= x(84)#84 <= 1
 0 <= x(85)#85 <= 1
 0 <= x(86)#86 <= 1
 0 <= x(87)#87 <= 1
 0 <= x(88)#88 <= 1
 0 <= x(89)#89 <= 1
 0 <= x(90)#90 <= 1
 0 <= x(91)#91 <= 1
 0 <= x(92)#92 <= 1
 0 <= x(93)#93 <= 1
 0 <= x(94)#94 <= 1
 0 <= x(95)#95 <= 1
 0 <= x(96)#96 <= 1
 0 <= x(97)#97 <= 1
 0 <= x(98)#98 <= 1
 0 <= x(99)#99 <= 1
Generals
 x(0)#0  x(1)#1  x(2)#2  x(3)#3  x(4)#4  x(5)#5  x(6)#6  x(7)#7  x(8)#8 
 x(9)#9  x(10)#10  x(11)#11  x(12)#12  x(13)#13  x(14)#14  x(15)#15  x(16)#16 
 x(17)#17  x(18)#18  x(19)#19  x(20)#20  x(21)#21  x(22)#22  x(23)#23 
 x(24)#24  x(25)#25  x(26)#26  x(27)#27  x(28)#28  x(29)#29  x(30)#30 
 x(31)#31  x(32)#32  x(33)#33  x(34)#34  x(35)#35  x(36)#36  x(37)#37 
 x(38)#38  x(39)#39  x(40)#40  x(41)#41  x(42)#42  x(43)#43  x(44)#44 
 x(45)#45  x(46)#46  x(47)#47  x(48)#48  x(49)#49  x(50)#50  x(51)#51 
 x(52)#52  x(53)#53  x(54)#54  x(55)#55  x(56)#56  x(57)#57  x(58)#58 
 x(59)#59  x(60)#60  x(61)#61  x(62)#62  x(63)#63  x(64)#64  x(65)#65 
 x(66)#66  x(67)#67  x(68)#68  x(69)#69  x(70)#70  x(71)#71  x(72)#72 
 x(73)#73  x(74)#74  x(75)#75  x(76)#76  x(77)#77  x(78)#78  x(79)#79 
 x(80)#80  x(81)#81  x(82)#82  x(83)#83  x(84)#84  x(85)#85  x(86)#86 
 x(87)#87  x(88)#88  x(89)#89  x(90)#90  x(91)#91  x(92)#92  x(93)#93 
 x(94)#94  x(95)#95  x(96)#96  x(97)#97  x(98)#98  x(99)#99 
End
